jobs  (incl. supersource/sink ):	102
RESOURCES
- renewable                 : 4 R
- nonrenewable              : 2 N
- doubly constrained        : 0 D
************************************************************************
PRECEDENCE RELATIONS:
jobnr.    #modes  #successors   successors
1	1	12		2 3 4 5 6 8 10 14 15 16 18 20 
2	6	6		35 30 17 13 9 7 
3	6	9		36 35 29 27 26 24 21 19 11 
4	6	8		35 29 27 24 22 21 19 11 
5	6	7		35 26 21 19 17 11 9 
6	6	4		30 26 17 7 
7	6	8		37 36 29 27 25 24 23 19 
8	6	4		36 29 19 12 
9	6	7		43 37 36 29 28 25 23 
10	6	5		29 26 24 23 19 
11	6	6		43 40 37 30 25 23 
12	6	5		43 37 30 24 23 
13	6	5		43 40 26 25 23 
14	6	5		43 40 37 26 23 
15	6	9		43 40 38 37 36 34 33 32 31 
16	6	7		43 38 34 33 32 31 29 
17	6	4		43 40 36 25 
18	6	4		43 38 28 25 
19	6	7		43 39 34 33 32 31 28 
20	6	5		47 36 34 33 29 
21	6	8		48 47 45 43 42 37 34 31 
22	6	8		50 48 44 42 37 36 34 32 
23	6	6		39 38 34 33 32 31 
24	6	9		50 48 46 44 41 40 39 38 32 
25	6	7		50 47 45 39 34 33 31 
26	6	6		50 46 42 41 39 32 
27	6	10		57 53 52 51 50 48 47 46 44 42 
28	6	8		57 53 52 51 50 48 46 42 
29	6	5		52 50 45 40 39 
30	6	8		58 53 52 51 50 46 45 42 
31	6	10		61 58 57 54 53 52 51 49 46 44 
32	6	9		64 61 57 53 52 51 49 47 45 
33	6	6		53 52 51 48 44 42 
34	6	5		61 57 51 46 41 
35	6	5		57 50 47 42 39 
36	6	4		53 52 45 39 
37	6	3		57 46 39 
38	6	4		58 57 56 42 
39	6	6		64 61 58 54 51 49 
40	6	8		67 64 61 58 57 54 53 51 
41	6	6		58 56 54 53 52 49 
42	6	5		65 64 61 54 49 
43	6	4		58 54 50 46 
44	6	7		69 68 67 65 60 59 56 
45	6	6		69 68 67 65 60 54 
46	6	5		65 64 63 59 55 
47	6	6		74 70 69 60 59 58 
48	6	5		68 63 60 59 58 
49	6	4		75 71 68 55 
50	6	6		75 71 69 67 65 60 
51	6	3		75 65 56 
52	6	6		74 71 70 69 65 60 
53	6	5		70 66 65 63 59 
54	6	4		70 63 62 59 
55	6	4		70 69 67 60 
56	6	4		71 70 63 62 
57	6	4		74 73 69 62 
58	6	6		76 75 73 72 66 65 
59	6	9		86 81 79 77 76 75 73 72 71 
60	6	2		73 62 
61	6	5		76 73 70 68 66 
62	6	5		78 77 76 72 66 
63	6	6		81 79 78 77 74 73 
64	6	4		81 77 76 70 
65	6	7		86 85 84 81 80 78 77 
66	6	9		95 94 88 87 86 84 82 81 79 
67	6	3		82 74 72 
68	6	8		95 89 88 87 85 84 80 77 
69	6	6		95 87 85 84 81 79 
70	6	8		96 95 89 87 86 85 82 80 
71	6	4		91 90 84 78 
72	6	6		95 89 88 87 85 80 
73	6	8		96 95 94 92 90 89 87 83 
74	6	7		100 93 91 90 87 85 84 
75	6	7		95 94 93 91 87 84 82 
76	6	6		95 91 90 89 87 84 
77	6	5		94 91 90 83 82 
78	6	5		95 94 87 83 82 
79	6	3		91 89 80 
80	6	4		100 92 90 83 
81	6	3		100 90 89 
82	6	5		101 100 99 98 92 
83	6	4		101 99 98 93 
84	6	4		99 98 96 92 
85	6	4		99 98 94 92 
86	6	3		100 99 91 
87	6	3		99 98 97 
88	6	3		99 98 97 
89	6	2		98 93 
90	6	2		101 97 
91	6	1		92 
92	6	1		97 
93	6	1		97 
94	6	1		97 
95	6	1		100 
96	6	1		97 
97	6	1		102 
98	6	1		102 
99	6	1		102 
100	6	1		102 
101	6	1		102 
102	1	0		
************************************************************************
REQUESTS/DURATIONS
jobnr.	mode	dur	R1	R2	R3	R4	N1	N2	
------------------------------------------------------------------------
1	1	0	0	0	0	0	0	0	
2	1	9	3	5	5	2	25	10	
	2	19	3	4	4	2	21	8	
	3	21	2	4	4	2	18	8	
	4	24	2	3	4	2	17	8	
	5	25	1	3	4	2	12	6	
	6	26	1	3	4	2	6	6	
3	1	17	4	3	5	4	25	24	
	2	19	3	3	4	3	24	19	
	3	22	3	3	4	3	23	17	
	4	23	3	2	4	3	21	17	
	5	26	3	2	4	3	18	13	
	6	28	3	2	4	3	17	11	
4	1	4	4	5	5	3	27	24	
	2	6	4	4	5	3	24	24	
	3	9	4	4	5	2	19	24	
	4	17	4	4	5	2	16	24	
	5	27	4	4	5	1	11	24	
	6	28	4	4	5	1	8	24	
5	1	2	4	3	4	4	22	24	
	2	3	3	3	3	4	20	23	
	3	6	2	3	3	4	18	23	
	4	19	2	2	3	4	12	23	
	5	22	1	2	3	4	12	23	
	6	27	1	2	3	4	8	23	
6	1	6	2	4	1	5	25	25	
	2	12	2	4	1	4	24	20	
	3	20	2	4	1	3	24	18	
	4	23	2	3	1	3	23	11	
	5	28	1	3	1	2	23	8	
	6	29	1	3	1	1	23	4	
7	1	8	4	4	5	3	2	16	
	2	9	4	3	3	2	2	16	
	3	16	4	3	3	2	2	15	
	4	23	4	3	3	1	2	15	
	5	27	4	3	2	1	2	13	
	6	29	4	3	1	1	2	13	
8	1	13	2	4	5	3	21	22	
	2	14	2	4	5	3	19	22	
	3	25	2	3	5	3	16	20	
	4	26	1	3	5	2	14	19	
	5	28	1	2	5	1	13	17	
	6	30	1	2	5	1	9	16	
9	1	9	4	5	2	5	27	19	
	2	11	4	4	1	4	24	16	
	3	16	4	4	1	4	21	15	
	4	24	4	3	1	4	19	11	
	5	26	4	3	1	4	16	4	
	6	29	4	3	1	4	14	4	
10	1	4	4	3	3	3	29	30	
	2	11	4	3	3	2	28	22	
	3	22	4	3	2	2	25	20	
	4	24	3	3	2	2	24	16	
	5	26	2	3	2	2	20	11	
	6	27	2	3	1	2	20	6	
11	1	5	4	1	4	1	22	9	
	2	12	3	1	4	1	20	8	
	3	19	2	1	4	1	17	8	
	4	24	2	1	4	1	16	8	
	5	26	2	1	4	1	12	8	
	6	27	1	1	4	1	10	8	
12	1	12	2	4	3	4	23	16	
	2	13	2	3	3	3	20	16	
	3	18	2	2	3	2	17	14	
	4	19	2	2	3	2	11	10	
	5	20	1	2	3	2	8	10	
	6	29	1	1	3	1	2	7	
13	1	3	2	3	3	5	27	27	
	2	17	1	3	3	3	26	24	
	3	18	1	3	3	3	25	23	
	4	21	1	3	2	2	25	21	
	5	25	1	3	2	1	24	19	
	6	26	1	3	2	1	24	17	
14	1	7	2	1	2	3	12	8	
	2	8	2	1	2	3	12	7	
	3	10	2	1	2	3	10	6	
	4	14	2	1	2	2	9	5	
	5	22	2	1	2	2	8	4	
	6	26	2	1	2	2	8	3	
15	1	4	1	5	4	1	11	30	
	2	5	1	4	3	1	8	27	
	3	22	1	4	3	1	6	24	
	4	23	1	4	2	1	6	22	
	5	25	1	4	2	1	4	19	
	6	26	1	4	2	1	2	18	
16	1	3	4	5	3	3	9	23	
	2	12	3	5	3	3	8	23	
	3	21	3	5	3	3	7	22	
	4	23	2	5	3	2	6	22	
	5	26	2	5	3	2	5	22	
	6	28	2	5	3	1	5	21	
17	1	12	1	2	5	2	27	29	
	2	13	1	2	4	2	21	23	
	3	18	1	2	4	2	20	23	
	4	20	1	2	3	2	19	18	
	5	28	1	2	2	2	14	18	
	6	29	1	2	2	2	12	14	
18	1	2	3	4	4	5	28	10	
	2	11	2	3	4	4	24	9	
	3	13	2	3	4	3	18	9	
	4	14	2	3	4	3	15	9	
	5	28	2	3	4	2	15	9	
	6	30	2	3	4	1	10	9	
19	1	12	5	4	3	4	7	2	
	2	14	4	4	3	3	7	2	
	3	17	4	4	2	3	6	2	
	4	25	4	3	2	3	4	2	
	5	29	3	3	1	3	3	2	
	6	30	3	3	1	3	3	1	
20	1	2	2	4	3	5	29	21	
	2	5	1	4	3	5	27	21	
	3	6	1	4	2	5	25	21	
	4	8	1	3	2	5	21	20	
	5	13	1	3	2	5	21	19	
	6	30	1	2	1	5	19	19	
21	1	6	4	4	4	4	13	25	
	2	7	4	4	4	3	11	24	
	3	8	4	4	4	3	8	24	
	4	14	3	4	4	2	7	24	
	5	18	2	4	4	2	4	23	
	6	28	2	4	4	2	3	23	
22	1	3	4	2	5	5	17	27	
	2	14	4	2	4	5	13	26	
	3	19	4	2	4	5	10	26	
	4	25	4	2	4	5	10	25	
	5	27	4	2	3	5	7	23	
	6	28	4	2	3	5	5	23	
23	1	8	4	3	5	3	18	25	
	2	9	4	3	3	3	17	25	
	3	13	4	3	3	2	16	24	
	4	16	4	3	2	2	16	24	
	5	25	4	3	1	2	13	23	
	6	29	4	3	1	1	12	22	
24	1	2	5	1	4	3	24	16	
	2	3	4	1	4	2	24	11	
	3	13	3	1	4	2	24	9	
	4	23	2	1	3	2	23	6	
	5	24	2	1	3	2	23	3	
	6	25	1	1	2	2	23	1	
25	1	5	1	2	1	2	14	12	
	2	16	1	2	1	2	14	10	
	3	18	1	2	1	2	14	9	
	4	19	1	2	1	2	14	8	
	5	26	1	2	1	2	13	7	
	6	27	1	2	1	2	13	6	
26	1	1	3	4	4	1	20	25	
	2	7	3	3	4	1	19	24	
	3	17	3	3	4	1	18	21	
	4	20	3	2	4	1	18	19	
	5	26	3	2	4	1	17	15	
	6	28	3	2	4	1	17	11	
27	1	6	2	4	3	4	15	30	
	2	12	2	4	3	4	14	29	
	3	15	2	4	3	4	13	28	
	4	16	2	3	3	4	13	27	
	5	25	2	3	3	4	11	26	
	6	26	2	3	3	4	11	25	
28	1	4	4	3	2	5	13	11	
	2	7	4	3	2	5	10	9	
	3	16	4	3	2	5	9	9	
	4	18	4	3	2	5	9	7	
	5	23	3	2	2	5	7	7	
	6	25	3	2	2	5	7	5	
29	1	8	3	2	1	4	18	27	
	2	16	2	2	1	3	15	25	
	3	17	2	2	1	3	13	23	
	4	18	2	2	1	3	10	22	
	5	19	1	2	1	3	10	21	
	6	24	1	2	1	3	8	21	
30	1	1	4	5	4	4	14	21	
	2	3	3	4	3	3	13	20	
	3	5	3	4	3	2	11	20	
	4	9	3	4	3	2	11	19	
	5	23	3	3	2	2	9	18	
	6	30	3	3	2	1	9	18	
31	1	2	3	4	5	4	20	22	
	2	5	3	4	4	4	20	16	
	3	6	3	4	4	4	20	14	
	4	7	3	4	4	4	20	11	
	5	27	3	4	4	4	19	11	
	6	29	3	4	4	4	19	7	
32	1	7	2	5	1	4	10	12	
	2	11	1	4	1	3	10	12	
	3	12	1	4	1	2	7	10	
	4	19	1	3	1	2	7	10	
	5	21	1	3	1	1	6	9	
	6	27	1	3	1	1	3	8	
33	1	1	4	4	4	4	24	11	
	2	11	3	3	4	3	23	10	
	3	13	3	3	4	3	21	10	
	4	16	2	3	4	3	16	8	
	5	27	2	2	3	3	13	5	
	6	28	1	2	3	3	12	5	
34	1	9	4	4	3	4	21	11	
	2	12	3	4	2	4	17	10	
	3	20	2	4	2	4	16	9	
	4	23	2	4	2	4	9	7	
	5	24	2	4	1	4	6	6	
	6	27	1	4	1	4	4	5	
35	1	4	4	5	4	3	20	19	
	2	8	3	3	4	3	19	17	
	3	17	3	3	4	3	18	14	
	4	20	3	2	3	3	17	13	
	5	28	3	2	3	2	15	11	
	6	29	3	1	3	2	15	7	
36	1	4	4	1	3	4	27	27	
	2	13	4	1	2	4	24	23	
	3	17	4	1	2	4	18	18	
	4	18	4	1	2	3	12	16	
	5	26	4	1	1	3	11	13	
	6	27	4	1	1	3	6	7	
37	1	5	4	4	4	1	24	16	
	2	7	4	4	3	1	24	15	
	3	10	4	4	3	1	22	14	
	4	23	4	4	3	1	19	13	
	5	26	4	4	3	1	19	12	
	6	27	4	4	3	1	17	12	
38	1	9	2	4	2	5	10	7	
	2	10	2	4	1	5	9	7	
	3	12	2	4	1	5	9	5	
	4	17	1	4	1	5	8	5	
	5	19	1	4	1	5	6	3	
	6	22	1	4	1	5	5	3	
39	1	3	3	3	3	5	15	27	
	2	6	3	3	3	4	13	24	
	3	7	3	3	3	3	11	24	
	4	8	3	3	2	3	11	19	
	5	10	3	2	1	2	10	19	
	6	26	3	2	1	1	9	14	
40	1	5	5	5	4	5	24	19	
	2	9	4	4	4	4	21	13	
	3	10	4	3	4	4	20	12	
	4	20	4	3	4	4	19	10	
	5	22	4	2	3	4	19	8	
	6	24	4	1	3	4	17	4	
41	1	5	2	2	3	4	27	26	
	2	15	1	1	3	4	19	19	
	3	17	1	1	3	4	17	18	
	4	18	1	1	2	4	12	14	
	5	24	1	1	2	3	8	10	
	6	25	1	1	2	3	5	4	
42	1	3	2	4	2	2	6	23	
	2	10	2	3	1	2	4	19	
	3	14	2	3	1	2	3	19	
	4	21	2	3	1	2	3	17	
	5	27	2	3	1	2	1	16	
	6	28	2	3	1	2	1	13	
43	1	6	2	2	2	4	21	14	
	2	15	2	1	2	4	19	12	
	3	23	2	1	2	4	19	11	
	4	26	2	1	2	4	18	10	
	5	28	2	1	2	4	17	6	
	6	29	2	1	2	4	17	5	
44	1	3	2	5	2	3	24	18	
	2	11	2	4	2	3	24	16	
	3	12	2	4	2	3	20	14	
	4	13	2	4	2	2	18	13	
	5	21	2	4	2	2	17	12	
	6	22	2	4	2	2	15	10	
45	1	2	5	1	4	3	23	18	
	2	11	4	1	4	2	23	16	
	3	18	4	1	4	2	20	16	
	4	19	3	1	4	2	15	14	
	5	20	2	1	4	2	14	13	
	6	26	2	1	4	2	10	12	
46	1	2	2	4	2	3	24	12	
	2	7	1	4	1	3	21	12	
	3	14	1	4	1	3	20	12	
	4	16	1	4	1	2	13	12	
	5	27	1	4	1	2	13	11	
	6	28	1	4	1	1	7	11	
47	1	7	3	3	1	5	30	20	
	2	11	2	3	1	4	26	19	
	3	19	2	3	1	4	22	19	
	4	23	2	3	1	3	22	18	
	5	24	1	2	1	3	20	18	
	6	30	1	2	1	3	16	18	
48	1	10	5	3	2	5	17	17	
	2	13	5	3	2	4	17	15	
	3	19	5	3	2	4	17	14	
	4	20	5	3	2	4	17	13	
	5	23	5	3	2	4	17	12	
	6	30	5	3	2	4	17	11	
49	1	3	4	3	1	1	8	22	
	2	9	4	3	1	1	7	19	
	3	12	4	3	1	1	7	18	
	4	16	4	3	1	1	7	15	
	5	24	4	3	1	1	7	12	
	6	28	4	3	1	1	7	6	
50	1	6	3	4	4	4	20	9	
	2	13	3	3	4	4	17	8	
	3	15	3	2	4	4	16	7	
	4	16	2	2	4	4	14	7	
	5	24	2	1	3	4	13	5	
	6	30	2	1	3	4	11	5	
51	1	2	4	1	5	1	22	29	
	2	4	3	1	4	1	21	24	
	3	9	3	1	4	1	17	22	
	4	15	3	1	4	1	15	20	
	5	19	2	1	3	1	14	16	
	6	29	2	1	3	1	11	13	
52	1	2	2	2	3	5	23	26	
	2	3	2	2	2	4	18	24	
	3	13	2	2	2	3	15	19	
	4	18	2	2	2	3	13	13	
	5	27	2	2	2	3	10	8	
	6	28	2	2	2	2	8	2	
53	1	13	5	3	2	2	20	19	
	2	14	4	3	2	2	18	15	
	3	16	4	2	2	2	18	12	
	4	17	4	2	2	2	18	10	
	5	23	4	2	2	2	16	9	
	6	26	4	1	2	2	16	7	
54	1	6	4	1	3	3	23	17	
	2	17	4	1	2	3	23	16	
	3	19	4	1	2	2	23	16	
	4	23	4	1	2	2	22	15	
	5	23	4	1	2	1	22	16	
	6	24	4	1	2	1	22	15	
55	1	4	4	1	4	2	11	7	
	2	5	4	1	3	2	11	6	
	3	11	3	1	2	2	10	5	
	4	12	3	1	2	2	10	4	
	5	20	2	1	2	1	10	2	
	6	21	2	1	1	1	9	1	
56	1	2	2	5	4	4	24	30	
	2	3	2	4	4	4	22	29	
	3	18	2	4	4	4	19	29	
	4	19	2	4	4	4	17	29	
	5	20	2	3	3	4	14	29	
	6	28	2	3	3	4	13	29	
57	1	3	5	2	1	3	10	26	
	2	7	5	2	1	3	9	18	
	3	10	5	2	1	3	8	16	
	4	24	5	2	1	2	7	10	
	5	26	5	2	1	2	6	10	
	6	29	5	2	1	1	6	3	
58	1	1	1	3	4	3	29	23	
	2	12	1	3	3	2	23	22	
	3	16	1	3	3	2	18	22	
	4	21	1	2	2	1	12	22	
	5	25	1	2	2	1	10	22	
	6	29	1	1	2	1	3	22	
59	1	5	1	5	5	2	25	15	
	2	6	1	4	3	2	23	13	
	3	21	1	3	3	2	19	10	
	4	22	1	3	2	2	16	10	
	5	25	1	2	1	2	11	6	
	6	26	1	2	1	2	8	4	
60	1	2	3	1	4	3	27	21	
	2	10	2	1	4	3	23	19	
	3	11	2	1	4	3	20	17	
	4	16	2	1	4	3	18	12	
	5	28	1	1	4	3	14	12	
	6	30	1	1	4	3	12	9	
61	1	1	4	5	4	3	1	26	
	2	4	4	3	3	3	1	26	
	3	12	4	3	3	2	1	23	
	4	14	3	2	3	2	1	16	
	5	19	3	2	3	2	1	12	
	6	30	2	1	3	1	1	10	
62	1	2	4	1	2	5	13	8	
	2	3	4	1	1	5	13	7	
	3	4	3	1	1	5	13	6	
	4	6	3	1	1	5	13	5	
	5	13	2	1	1	5	12	5	
	6	16	2	1	1	5	12	4	
63	1	2	5	3	4	5	29	25	
	2	7	5	3	3	4	29	25	
	3	18	5	3	3	4	29	21	
	4	25	5	3	2	3	29	19	
	5	26	5	3	2	3	28	17	
	6	27	5	3	1	3	28	15	
64	1	2	3	5	4	2	29	20	
	2	7	2	4	4	2	28	15	
	3	11	2	4	4	2	24	13	
	4	13	2	4	4	2	24	12	
	5	24	2	4	4	1	20	10	
	6	30	2	4	4	1	19	8	
65	1	7	1	4	3	5	11	29	
	2	22	1	4	3	3	10	21	
	3	23	1	4	3	3	8	20	
	4	24	1	3	3	3	5	16	
	5	26	1	2	2	1	4	12	
	6	29	1	2	2	1	2	7	
66	1	1	3	2	4	4	20	20	
	2	2	3	2	3	3	20	20	
	3	3	3	2	3	3	18	19	
	4	10	2	2	2	3	17	17	
	5	15	2	2	2	3	15	17	
	6	24	2	2	2	3	15	15	
67	1	6	2	5	4	3	19	12	
	2	16	2	4	4	2	19	12	
	3	17	2	4	4	2	19	11	
	4	18	2	4	4	1	18	12	
	5	20	2	3	4	1	18	12	
	6	27	2	3	4	1	18	11	
68	1	4	5	5	4	4	28	13	
	2	5	5	4	4	3	27	11	
	3	8	5	4	4	3	26	11	
	4	17	5	4	4	3	25	10	
	5	21	5	4	4	1	24	9	
	6	22	5	4	4	1	24	8	
69	1	1	1	4	3	2	22	28	
	2	3	1	4	2	2	20	28	
	3	14	1	4	2	2	20	27	
	4	15	1	4	2	2	18	28	
	5	19	1	4	2	1	16	27	
	6	20	1	4	2	1	15	27	
70	1	9	4	4	5	1	4	22	
	2	13	3	3	4	1	4	19	
	3	25	3	3	4	1	3	18	
	4	26	2	3	3	1	3	18	
	5	27	2	2	3	1	2	14	
	6	29	1	2	3	1	2	14	
71	1	6	4	3	5	4	6	17	
	2	8	4	3	5	4	6	14	
	3	13	4	3	5	4	6	13	
	4	14	3	3	5	4	5	9	
	5	23	3	2	5	4	4	7	
	6	25	3	2	5	4	4	3	
72	1	3	4	4	3	5	20	16	
	2	4	3	4	3	4	19	14	
	3	5	3	4	3	4	17	14	
	4	14	2	4	3	3	17	11	
	5	20	2	4	3	3	14	11	
	6	25	1	4	3	3	13	9	
73	1	3	5	2	4	3	7	12	
	2	4	4	2	4	2	6	12	
	3	5	4	2	3	2	5	12	
	4	13	3	2	3	2	4	11	
	5	20	3	2	2	2	2	10	
	6	21	2	2	2	2	2	10	
74	1	6	2	3	3	5	23	20	
	2	9	2	2	3	5	18	20	
	3	10	2	2	3	5	13	19	
	4	11	2	1	3	5	9	18	
	5	17	2	1	2	5	9	17	
	6	18	2	1	2	5	5	16	
75	1	4	4	4	5	2	9	19	
	2	9	4	4	4	2	8	19	
	3	12	4	3	3	2	7	19	
	4	18	4	3	2	2	7	18	
	5	27	4	2	1	2	5	18	
	6	30	4	2	1	2	5	17	
76	1	1	3	2	4	5	27	6	
	2	6	3	2	4	4	27	7	
	3	7	3	2	4	4	27	6	
	4	14	3	2	3	3	27	5	
	5	23	3	1	2	3	27	5	
	6	24	3	1	2	3	27	4	
77	1	6	3	2	2	3	25	12	
	2	9	2	2	2	3	21	10	
	3	14	2	2	2	3	18	8	
	4	26	2	2	2	2	15	6	
	5	29	2	2	2	1	14	2	
	6	30	2	2	2	1	9	1	
78	1	10	5	5	5	3	29	19	
	2	11	5	4	4	3	27	16	
	3	12	5	4	4	3	24	14	
	4	16	5	4	4	3	23	11	
	5	23	5	3	4	3	19	10	
	6	30	5	3	4	3	18	7	
79	1	7	3	3	5	4	27	29	
	2	11	3	3	4	4	24	29	
	3	12	3	3	4	4	19	29	
	4	19	3	3	3	4	17	28	
	5	21	3	3	3	4	10	28	
	6	27	3	3	3	4	6	28	
80	1	1	5	3	4	1	17	20	
	2	8	5	2	4	1	15	18	
	3	11	5	2	4	1	12	16	
	4	12	5	2	4	1	11	13	
	5	17	5	2	4	1	8	12	
	6	18	5	2	4	1	7	9	
81	1	5	5	2	3	4	28	23	
	2	8	4	2	3	4	26	22	
	3	19	4	2	3	4	22	22	
	4	21	3	2	2	3	20	22	
	5	22	3	2	2	3	14	21	
	6	25	3	2	2	2	13	21	
82	1	10	5	1	4	4	9	15	
	2	18	5	1	4	4	9	14	
	3	21	5	1	3	3	9	15	
	4	22	5	1	3	3	9	14	
	5	27	5	1	2	2	9	14	
	6	29	5	1	1	2	9	14	
83	1	8	5	4	5	3	25	18	
	2	13	4	4	3	2	22	17	
	3	14	4	4	3	2	18	17	
	4	17	3	3	3	2	14	15	
	5	18	3	3	2	1	10	13	
	6	19	3	3	1	1	4	12	
84	1	5	4	4	3	5	22	20	
	2	9	4	4	2	4	19	17	
	3	10	4	3	2	4	12	16	
	4	12	4	3	2	4	8	10	
	5	17	4	2	1	4	7	8	
	6	22	4	2	1	4	1	5	
85	1	4	4	4	4	3	7	17	
	2	5	4	3	4	3	7	15	
	3	7	4	3	4	3	7	14	
	4	12	3	3	3	2	7	12	
	5	19	2	3	3	2	7	11	
	6	30	2	3	2	2	7	11	
86	1	1	4	2	4	5	22	29	
	2	7	3	2	4	4	22	25	
	3	12	3	2	4	3	20	20	
	4	16	2	1	4	3	20	16	
	5	18	2	1	4	3	19	15	
	6	25	1	1	4	2	17	10	
87	1	5	4	5	4	2	25	25	
	2	6	4	4	4	2	24	22	
	3	14	3	4	4	2	23	20	
	4	22	3	3	4	2	22	16	
	5	27	2	2	4	2	21	11	
	6	29	2	2	4	2	21	8	
88	1	1	5	4	5	1	26	26	
	2	3	4	3	4	1	24	23	
	3	12	4	3	4	1	22	21	
	4	17	3	3	3	1	22	19	
	5	23	2	3	2	1	20	15	
	6	29	2	3	2	1	19	14	
89	1	1	5	4	5	2	21	25	
	2	7	4	4	4	1	19	20	
	3	10	4	4	4	1	18	18	
	4	19	4	4	3	1	18	12	
	5	25	4	4	3	1	17	10	
	6	29	4	4	3	1	16	5	
90	1	4	5	4	2	1	17	29	
	2	9	5	4	2	1	15	27	
	3	13	5	3	2	1	14	27	
	4	20	5	3	2	1	12	26	
	5	27	5	2	2	1	11	26	
	6	30	5	2	2	1	9	25	
91	1	2	5	4	5	2	22	26	
	2	6	4	4	4	2	19	25	
	3	7	3	4	4	2	19	24	
	4	10	2	4	4	2	17	23	
	5	11	1	4	4	1	14	23	
	6	15	1	4	4	1	13	22	
92	1	11	3	4	4	3	27	18	
	2	19	2	3	3	2	26	17	
	3	20	2	3	3	2	26	12	
	4	23	1	3	3	2	26	11	
	5	24	1	2	3	1	24	4	
	6	25	1	1	3	1	24	1	
93	1	8	1	5	2	2	21	19	
	2	9	1	4	2	2	21	15	
	3	15	1	4	2	2	21	12	
	4	18	1	4	2	1	20	9	
	5	22	1	4	1	1	20	8	
	6	26	1	4	1	1	19	5	
94	1	6	2	5	4	5	16	26	
	2	7	2	3	4	4	16	22	
	3	13	2	3	4	4	16	21	
	4	14	1	2	4	4	16	19	
	5	20	1	1	3	4	16	19	
	6	22	1	1	3	4	16	16	
95	1	8	4	4	4	2	6	20	
	2	18	4	3	4	1	4	18	
	3	22	4	3	4	1	4	17	
	4	24	4	2	4	1	4	18	
	5	28	3	2	4	1	3	16	
	6	30	3	1	4	1	2	16	
96	1	1	3	3	2	1	29	28	
	2	17	3	3	2	1	28	28	
	3	19	3	3	2	1	27	28	
	4	24	2	3	2	1	26	28	
	5	26	1	2	2	1	25	28	
	6	30	1	2	2	1	25	27	
97	1	6	2	2	3	3	24	27	
	2	9	2	2	2	2	22	25	
	3	20	2	2	2	2	18	25	
	4	23	2	2	2	2	16	23	
	5	24	1	2	2	2	15	23	
	6	25	1	2	2	2	14	22	
98	1	5	5	5	5	2	28	25	
	2	8	4	4	4	2	28	23	
	3	10	4	4	3	2	28	23	
	4	17	4	4	2	2	28	22	
	5	20	4	4	2	2	28	21	
	6	24	4	4	1	2	28	20	
99	1	3	4	5	3	2	30	12	
	2	4	3	4	2	2	30	11	
	3	9	3	4	2	2	30	9	
	4	10	3	3	2	2	30	7	
	5	15	2	3	2	2	30	5	
	6	23	1	2	2	2	30	5	
100	1	11	5	2	3	2	4	5	
	2	13	5	2	3	1	3	4	
	3	20	5	2	3	1	3	3	
	4	23	5	1	2	1	3	4	
	5	24	5	1	2	1	3	3	
	6	28	5	1	2	1	3	2	
101	1	2	3	2	3	1	27	16	
	2	3	3	1	3	1	22	15	
	3	4	3	1	3	1	16	15	
	4	23	3	1	3	1	13	15	
	5	27	3	1	3	1	11	15	
	6	29	3	1	3	1	7	15	
102	1	0	0	0	0	0	0	0	
************************************************************************

 RESOURCE AVAILABILITIES 
	R 1	R 2	R 3	R 4	N 1	N 2
	20	25	24	23	1771	1769

************************************************************************
